# 60063
param n := 25;
param s := 1;
set E :=  (0,5) (0,16) (1,5) (1,10) (1,19) (2,19) (3,11) (3,16) (3,19) (3,22) (3,24) (4,19) (5,6) (5,9) (5,11) (6,17) (7,9) (8,15) (8,17) (10,21) (12,16) (12,17) (13,20) (13,23) (14,19) (14,20) (14,21) (14,23) (15,16) (15,21) (17,18) (21,22) (21,23) (21,24);
